NAME : n100w180.004.804.tour
COMMENT : Length = 804
COMMENT : Found by LKH [Keld Helsgaun] Tue May  2 05:52:37 2017
TYPE : TOUR
DIMENSION : 101
TOUR_SECTION
1
40
35
4
14
96
49
58
12
16
90
28
70
13
98
79
23
72
77
26
42
8
41
92
31
53
55
93
20
100
95
37
44
63
25
34
43
3
45
48
91
89
5
83
22
97
75
80
76
60
65
39
19
66
36
11
61
18
33
71
78
74
69
81
59
68
32
62
82
30
67
73
86
84
99
21
52
54
15
7
10
38
24
50
57
51
27
87
46
2
56
47
64
29
88
85
9
17
6
94
101
-1
EOF
